p tw 99 1446
0 1
0 2
0 3
0 4
0 5
0 6
0 7
0 8
0 10
0 13
0 33
0 34
0 35
0 36
0 37
0 17
0 39
0 40
0 43
0 72
0 77
0 83
0 85
0 96
1 2
1 3
1 4
1 5
1 6
1 7
1 8
1 9
1 36
1 38
1 39
1 40
1 41
1 42
1 43
1 20
1 55
1 58
1 62
1 69
1 70
1 71
1 44
1 53
1 72
1 73
1 74
1 75
1 76
1 35
1 50
1 87
1 90
1 91
1 92
1 93
1 13
1 63
1 77
1 79
1 96
1 29
1 33
1 46
1 48
1 49
1 52
1 98
1 81
1 83
1 86
1 95
2 3
2 4
2 5
2 6
2 7
2 8
2 9
2 36
2 38
2 39
2 40
2 41
2 42
2 43
2 30
2 56
2 58
2 59
2 65
2 19
2 34
2 37
2 44
2 53
2 54
2 82
2 83
2 13
2 63
2 77
2 79
2 96
2 16
2 17
2 31
2 73
2 74
2 80
3 4
3 5
3 6
3 7
3 8
3 14
3 18
3 26
3 33
3 37
3 73
3 94
4 5
4 6
4 7
4 8
4 14
4 18
4 26
4 33
4 37
4 73
4 94
5 6
5 7
5 8
5 9
5 19
5 28
5 30
5 47
5 61
5 63
5 64
5 39
5 42
5 56
5 58
5 59
5 65
5 10
5 27
5 33
5 43
5 50
5 60
5 66
5 67
5 68
5 21
5 32
5 62
5 84
5 85
5 20
5 36
5 41
5 44
5 45
5 80
5 12
5 40
5 57
5 71
5 86
5 13
5 17
5 23
5 26
5 31
5 46
5 53
6 7
6 8
6 10
6 13
6 33
6 34
6 35
6 36
6 37
6 14
6 18
6 26
6 73
6 94
6 9
6 11
6 48
6 49
6 60
6 88
6 98
6 29
6 38
6 46
6 52
6 44
6 62
6 63
6 81
6 83
6 86
6 95
6 22
6 24
6 82
6 87
7 8
7 9
7 10
7 11
7 12
7 13
7 14
7 15
7 16
7 33
7 34
7 35
7 36
7 37
7 44
7 53
7 72
7 73
7 74
7 75
7 76
7 22
7 24
7 81
7 82
7 87
8 20
8 55
8 58
8 62
8 69
8 70
8 71
8 11
8 17
8 26
8 44
8 45
8 53
8 75
8 95
8 96
9 10
9 11
9 12
9 13
9 14
9 15
9 16
9 17
9 18
9 19
9 20
9 21
9 22
9 23
9 36
9 38
9 39
9 40
9 41
9 42
9 43
9 28
9 30
9 47
9 61
9 63
9 64
9 77
9 79
9 96
9 26
9 48
9 49
9 60
9 88
9 98
9 31
9 33
9 68
9 71
9 73
9 75
9 87
9 59
9 74
9 82
9 97
10 11
10 12
10 13
10 14
10 15
10 16
10 33
10 34
10 35
10 36
10 37
10 27
10 43
10 50
10 60
10 66
10 67
10 68
10 21
10 32
10 59
10 62
10 63
10 65
10 84
10 85
10 18
10 24
10 38
10 47
10 86
10 87
10 88
10 30
10 46
10 69
10 70
10 83
10 93
10 97
10 44
10 53
10 78
10 80
11 12
11 13
11 14
11 15
11 16
11 26
11 48
11 49
11 60
11 88
11 98
11 35
11 52
11 53
11 59
11 61
11 62
11 71
11 74
11 17
11 44
11 45
11 75
11 95
11 96
11 21
11 34
11 65
11 69
11 78
11 80
12 13
12 14
12 15
12 16
12 34
12 37
12 44
12 47
12 70
12 77
12 78
12 79
12 19
12 40
12 57
12 63
12 71
12 86
12 20
12 21
12 29
12 30
12 84
12 85
12 92
13 14
13 15
13 16
13 33
13 34
13 35
13 36
13 37
13 39
13 63
13 77
13 79
13 96
13 17
13 23
13 26
13 31
13 40
13 46
13 53
13 60
13 22
13 24
13 44
13 81
13 82
13 87
14 15
14 16
14 22
14 34
14 40
14 57
14 58
14 59
14 60
14 61
14 62
14 18
14 26
14 33
14 37
14 73
14 94
15 16
15 21
15 22
15 23
15 27
15 44
15 61
15 68
15 77
15 95
15 30
15 46
15 69
15 70
15 83
15 93
15 97
16 30
16 46
16 69
16 70
16 83
16 93
16 97
16 17
16 31
16 36
16 41
16 44
16 73
16 74
16 80
17 18
17 19
17 20
17 21
17 22
17 23
17 39
17 40
17 43
17 72
17 77
17 83
17 85
17 96
17 31
17 36
17 41
17 44
17 73
17 74
17 80
17 26
17 45
17 53
17 75
17 95
17 46
17 60
18 19
18 20
18 21
18 22
18 23
18 24
18 25
18 26
18 27
18 28
18 29
18 30
18 31
18 32
18 33
18 43
18 46
18 51
18 52
18 53
18 54
18 55
18 56
18 39
18 65
18 72
18 76
18 80
18 81
18 38
18 47
18 86
18 87
18 88
18 37
18 73
18 94
19 20
19 21
19 22
19 23
19 28
19 30
19 47
19 61
19 63
19 64
19 27
19 32
19 53
19 67
19 34
19 37
19 39
19 44
19 54
19 82
19 83
19 40
19 57
19 71
19 86
20 21
20 22
20 23
20 27
20 32
20 53
20 61
20 63
20 67
20 55
20 58
20 62
20 69
20 70
20 71
20 39
20 65
20 72
20 76
20 80
20 81
20 28
20 36
20 41
20 44
20 45
20 56
20 29
20 30
20 40
20 84
20 85
20 92
21 22
21 23
21 32
21 59
21 62
21 63
21 65
21 84
21 85
21 24
21 38
21 47
21 86
21 87
21 88
21 27
21 44
21 61
21 68
21 77
21 95
21 29
21 30
21 40
21 92
21 34
21 53
21 69
21 78
21 80
22 23
22 34
22 40
22 57
22 58
22 59
22 60
22 61
22 62
22 27
22 44
22 68
22 77
22 95
22 24
22 36
22 81
22 82
22 87
23 27
23 32
23 53
23 61
23 63
23 67
23 44
23 68
23 77
23 95
23 26
23 31
23 40
23 46
23 60
24 25
24 26
24 27
24 28
24 29
24 30
24 31
24 32
24 38
24 47
24 86
24 87
24 88
24 36
24 44
24 81
24 82
25 26
25 27
25 28
25 29
25 30
25 31
25 32
26 27
26 28
26 29
26 30
26 31
26 32
26 33
26 37
26 73
26 94
26 48
26 49
26 60
26 88
26 98
26 44
26 45
26 53
26 75
26 95
26 96
26 40
26 46
27 28
27 29
27 30
27 31
27 32
27 33
27 43
27 50
27 60
27 66
27 67
27 68
27 53
27 61
27 63
27 39
27 55
27 65
27 72
27 76
27 80
27 81
27 44
27 77
27 95
27 54
27 56
27 96
28 29
28 30
28 31
28 32
28 47
28 61
28 63
28 64
28 36
28 41
28 44
28 45
28 56
28 65
28 80
28 48
28 59
28 68
28 73
28 74
28 75
28 82
28 97
29 30
29 31
29 32
29 33
29 38
29 46
29 48
29 49
29 52
29 98
29 40
29 63
29 84
29 85
29 92
30 31
30 32
30 47
30 61
30 63
30 64
30 39
30 42
30 56
30 58
30 59
30 65
30 46
30 69
30 70
30 83
30 93
30 97
30 40
30 84
30 85
30 92
31 32
31 33
31 61
31 68
31 71
31 73
31 75
31 77
31 87
31 36
31 41
31 44
31 74
31 80
31 40
31 46
31 53
31 60
32 53
32 61
32 63
32 67
32 59
32 62
32 65
32 84
32 85
32 38
32 47
32 86
32 87
32 88
33 34
33 35
33 36
33 37
33 43
33 46
33 51
33 52
33 53
33 54
33 55
33 56
33 50
33 60
33 66
33 67
33 68
33 73
33 94
33 61
33 71
33 75
33 77
33 87
33 38
33 48
33 49
33 98
33 44
33 62
33 63
33 81
33 83
33 86
33 95
34 35
34 36
34 37
34 40
34 57
34 58
34 59
34 60
34 61
34 62
34 44
34 47
34 70
34 77
34 78
34 79
34 39
34 53
34 54
34 82
34 83
34 65
34 69
34 80
35 36
35 37
35 50
35 71
35 87
35 90
35 91
35 92
35 93
35 52
35 53
35 59
35 61
35 62
35 74
36 37
36 38
36 39
36 40
36 41
36 42
36 43
36 44
36 45
36 46
36 47
36 48
36 49
36 50
36 51
36 56
36 65
36 80
36 73
36 74
36 81
36 82
36 87
37 44
37 45
37 46
37 47
37 48
37 49
37 50
37 51
37 70
37 77
37 78
37 79
37 39
37 53
37 54
37 82
37 83
37 73
37 94
38 39
38 40
38 41
38 42
38 43
38 47
38 86
38 87
38 88
38 46
38 48
38 49
38 52
38 98
39 40
39 41
39 42
39 43
39 56
39 58
39 59
39 65
39 55
39 72
39 76
39 80
39 81
39 44
39 53
39 54
39 82
39 83
39 63
39 68
39 74
39 89
39 77
39 79
39 96
39 85
40 41
40 42
40 43
40 57
40 58
40 59
40 60
40 61
40 62
40 63
40 71
40 86
40 72
40 77
40 83
40 85
40 96
40 84
40 92
40 46
40 53
41 42
41 43
41 44
41 45
41 56
41 65
41 80
41 63
41 68
41 74
41 83
41 89
41 73
42 43
42 56
42 58
42 59
42 65
43 46
43 51
43 52
43 53
43 54
43 55
43 56
43 50
43 60
43 66
43 67
43 68
43 76
43 95
43 96
43 72
43 77
43 83
43 85
44 45
44 46
44 47
44 48
44 49
44 50
44 51
44 53
44 72
44 73
44 74
44 75
44 76
44 70
44 77
44 78
44 79
44 54
44 82
44 83
44 56
44 65
44 80
44 63
44 68
44 89
44 61
44 95
44 62
44 81
44 86
44 96
44 87
44 69
45 46
45 47
45 48
45 49
45 50
45 51
45 56
45 65
45 80
45 53
45 75
45 95
45 96
46 47
46 48
46 49
46 50
46 51
46 52
46 53
46 54
46 55
46 56
46 69
46 70
46 83
46 93
46 97
46 98
46 60
47 48
47 49
47 50
47 51
47 61
47 63
47 64
47 70
47 77
47 78
47 79
47 86
47 87
47 88
48 49
48 50
48 51
48 60
48 88
48 98
48 59
48 68
48 73
48 74
48 75
48 82
48 97
48 52
49 50
49 51
49 60
49 88
49 98
49 52
50 51
50 60
50 66
50 67
50 68
50 71
50 87
50 90
50 91
50 92
50 93
50 53
50 54
50 56
50 76
50 95
50 96
51 52
51 53
51 54
51 55
51 56
52 53
52 54
52 55
52 56
52 98
52 59
52 61
52 62
52 71
52 74
53 54
53 55
53 56
53 61
53 63
53 67
53 72
53 73
53 74
53 75
53 76
53 82
53 83
53 68
53 95
53 96
53 59
53 62
53 71
53 60
53 65
53 69
53 78
53 80
54 55
54 56
54 82
54 83
54 68
54 76
54 95
54 96
55 56
55 58
55 62
55 69
55 70
55 71
55 65
55 72
55 76
55 80
55 81
56 58
56 59
56 65
56 80
56 68
56 76
56 95
56 96
57 58
57 59
57 60
57 61
57 62
57 63
57 71
57 86
58 59
58 60
58 61
58 62
58 65
58 69
58 70
58 71
59 60
59 61
59 62
59 65
59 63
59 84
59 85
59 68
59 73
59 74
59 75
59 82
59 97
59 71
60 61
60 62
60 66
60 67
60 68
60 88
60 98
61 62
61 63
61 64
61 67
61 68
61 77
61 95
61 71
61 73
61 75
61 87
61 74
62 69
62 70
62 71
62 63
62 65
62 84
62 85
62 74
62 81
62 83
62 86
62 95
63 64
63 67
63 65
63 84
63 85
63 71
63 86
63 68
63 74
63 83
63 89
63 77
63 79
63 96
63 92
63 81
63 95
65 72
65 76
65 80
65 81
65 84
65 85
65 69
65 78
66 67
66 68
67 68
68 74
68 83
68 89
68 77
68 95
68 76
68 96
68 71
68 73
68 75
68 87
68 82
68 97
69 70
69 71
69 83
69 93
69 97
69 78
69 80
70 71
70 77
70 78
70 79
70 83
70 93
70 97
71 86
71 87
71 90
71 91
71 92
71 93
71 73
71 75
71 77
71 74
72 73
72 74
72 75
72 76
72 80
72 81
72 77
72 83
72 85
72 96
73 74
73 75
73 76
73 94
73 77
73 87
73 82
73 97
73 80
74 75
74 76
74 83
74 89
74 82
74 97
74 80
75 76
75 77
75 87
75 82
75 97
75 95
75 96
76 80
76 81
76 95
76 96
77 78
77 79
77 95
77 96
77 83
77 85
77 87
78 79
78 80
79 96
80 81
81 83
81 86
81 95
81 82
81 87
82 83
82 97
82 87
83 89
83 93
83 97
83 85
83 96
83 86
83 95
84 85
84 92
85 96
85 92
86 87
86 88
86 95
87 88
87 90
87 91
87 92
87 93
88 98
90 91
90 92
90 93
91 92
91 93
92 93
93 97
95 96
